14 18

16 9 2 12 6 10 9 10
1 3 17 8 18 9 11 15 16 15 12 4
17 3 7 10 2 4 8 8
4 10 16 6 8 4 12 7
11 7 9 14 17 5 10 5 14 12
13 4 14 4 17 12 18 3
3 7 9 4 1 12 7 10 18 15 8 9
13 4 9 7 5 14 1 13
18 14 6 4 13 10 10 10
11 7 13 14 1 15 16 4
12 3 13 4 17 2 1 4 16 8 18 6
5 15 8 14 17 11 7 15 10 5 13 7
18 3 3 11 8 5 16 4 17 9
5 8 18 8 12 10 6 13
